;; Preprocessed for Astral solver
(set-info :status unsat)
;; variables
(declare-const x0 Loc)
(declare-const x1 Loc)
(declare-const x2 Loc)
(declare-const x3 Loc)
(declare-const x4 Loc)
(declare-const x5 Loc)
(declare-const x6 Loc)
(declare-const x7 Loc)
(declare-const x8 Loc)
(declare-const x9 Loc)
(declare-const x10 Loc)
(declare-const x11 Loc)
(declare-const x12 Loc)
(declare-const x13 Loc)
(declare-const x14 Loc)
(declare-const x15 Loc)
(declare-const x16 Loc)
(declare-const x17 Loc)
(declare-const x18 Loc)
(declare-const x19 Loc)
(declare-const x20 Loc)
(declare-const x21 Loc)
(declare-const x22 Loc)
(declare-const x23 Loc)
(declare-const x24 Loc)

(assert 
		(sep 
			(= nil nil)
			(distinct nil x1)
			(distinct nil x2)
			(distinct x1 x2)
			(distinct nil x3)
			(distinct nil x4)
			(distinct x3 x4)
			(distinct nil x5)
			(distinct nil x6)
			(distinct x5 x6)
			(distinct nil x7)
			(distinct nil x8)
			(distinct x7 x8)
			(distinct nil x9)
			(distinct nil x10)
			(distinct x9 x10)
			(distinct nil x11)
			(distinct nil x12)
			(distinct x11 x12)
			(distinct nil x13)
			(distinct nil x14)
			(distinct x13 x14)
			(distinct nil x15)
			(distinct nil x16)
			(distinct x15 x16)
			(distinct nil x17)
			(distinct nil x18)
			(distinct x17 x18)
			(distinct nil x19)
			(distinct nil x20)
			(distinct x19 x20)
			emp
		)

)

(assert (not 
			emp
))

(check-sat)
